
Gurobi 7.5.2 (linux64) logging started Sat Jul  7 16:19:22 2018

Changed value of parameter LogFile to result/ilp/simNo_3-n_100-m_40-s_4-minVAF_0.05-cov_10000-k_1-fn_0.10-fp_0.0001-na_0.15.ILP.gurobiSolverLog
   Prev: gurobi.log  Default: 
Changed value of parameter TimeLimit to 86400.0
   Prev: 1e+100  Min: 0.0  Max: 1e+100  Default: 1e+100
Optimize a model with 639293 rows, 10765 columns and 1940420 nonzeros
Variable types: 0 continuous, 10765 integer (10765 binary)
Coefficient statistics:
  Matrix range     [1e-04, 4e+00]
  Objective range  [4e-01, 9e+00]
  Bounds range     [1e+00, 1e+00]
  RHS range        [2e-01, 2e+00]
Found heuristic solution: objective -13525.51011
Presolve removed 131841 rows and 1023 columns (presolve time = 5s) ...
Presolve removed 133341 rows and 1023 columns (presolve time = 14s) ...
Presolve removed 191141 rows and 1601 columns (presolve time = 15s) ...
Presolve removed 191141 rows and 1601 columns (presolve time = 20s) ...
Presolve removed 191141 rows and 1601 columns
Presolve time: 21.02s
Presolved: 448152 rows, 9164 columns, 1348315 nonzeros
Variable types: 0 continuous, 9164 integer (9164 binary)
Presolved: 9164 rows, 457316 columns, 1357479 nonzeros

Presolve removed 9164 rows and 457316 columns

Root simplex log...

Iteration    Objective       Primal Inf.    Dual Inf.      Time
       0    9.0793957e+00   0.000000e+00   6.597700e+04     26s
   19103   -1.8235359e+02   0.000000e+00   3.145000e+03     30s
   20099   -1.8344059e+02   0.000000e+00   0.000000e+00     31s
   20099   -1.8344059e+02   0.000000e+00   0.000000e+00     32s

Root relaxation: objective -1.834406e+02, 20099 iterations, 8.49 seconds
Total elapsed time = 62.26s
Total elapsed time = 70.56s
Total elapsed time = 87.46s

    Nodes    |    Current Node    |     Objective Bounds      |     Work
 Expl Unexpl |  Obj  Depth IntInf | Incumbent    BestBd   Gap | It/Node Time

     0     0 -183.44059    0  649 -13525.510 -183.44059  98.6%     -   94s
H    0     0                    -233.2495785 -183.44059  21.4%     -  100s
H    0     0                    -220.9464675 -183.44059  17.0%     -  102s
     0     0 -195.31499    0  519 -220.94647 -195.31499  11.6%     -  210s
     0     0 -195.31499    0  526 -220.94647 -195.31499  11.6%     -  221s
     0     0 -197.36550    0  531 -220.94647 -197.36550  10.7%     -  271s
     0     0 -197.36550    0  515 -220.94647 -197.36550  10.7%     -  290s
     0     0 -198.39076    0  492 -220.94647 -198.39076  10.2%     -  349s
     0     0 -198.39076    0  467 -220.94647 -198.39076  10.2%     -  358s
     0     0 -199.41602    0  461 -220.94647 -199.41602  9.74%     -  426s
     0     0 -199.41602    0  471 -220.94647 -199.41602  9.74%     -  437s
     0     0 -199.41602    0  442 -220.94647 -199.41602  9.74%     -  448s
     0     0 -199.41602    0  432 -220.94647 -199.41602  9.74%     -  457s
     0     0 -199.75778    0  494 -220.94647 -199.75778  9.59%     -  780s
H    0     0                    -218.8959489 -199.75778  8.74%     -  787s
     0     0 -199.92865    0  506 -218.89595 -199.92865  8.66%     -  797s
     0     0 -199.92865    0  506 -218.89595 -199.92865  8.66%     -  801s
     0     0 -201.97917    0  505 -218.89595 -201.97917  7.73%     -  834s
     0     0 -201.97917    0  507 -218.89595 -201.97917  7.73%     -  843s
     0     0 -202.49180    0  511 -218.89595 -202.49180  7.49%     -  882s
     0     0 -202.49180    0  398 -218.89595 -202.49180  7.49%     -  893s
     0     0 -202.49180    0  463 -218.89595 -202.49180  7.49%     -  905s
     0     0 -202.49180    0  533 -218.89595 -202.49180  7.49%     -  914s
     0     0 -202.66268    0  485 -218.89595 -202.66268  7.42%     - 1123s
     0     0 -202.74812    0  507 -218.89595 -202.74812  7.38%     - 1142s
     0     0 -202.79938    0  510 -218.89595 -202.79938  7.35%     - 1149s
     0     0 -202.83355    0  508 -218.89595 -202.83355  7.34%     - 1154s
     0     0 -202.83355    0  515 -218.89595 -202.83355  7.34%     - 1161s
H    0     0                    -216.8454304 -202.83355  6.46%     - 1165s
     0     0 -202.83355    0  510 -216.84543 -202.83355  6.46%     - 1167s
     0     0 -202.83355    0  510 -216.84543 -202.83355  6.46%     - 1174s
     0     0 -202.83355    0  511 -216.84543 -202.83355  6.46%     - 1179s
     0     0 -203.51706    0  299 -216.84543 -203.51706  6.15%     - 1387s
     0     0 -203.51706    0  391 -216.84543 -203.51706  6.15%     - 1406s
     0     0 -203.72211    0  500 -216.84543 -203.72211  6.05%     - 1418s
     0     0 -203.77337    0  508 -216.84543 -203.77337  6.03%     - 1424s
     0     0 -204.41416    0  513 -216.84543 -204.41416  5.73%     - 1555s
     0     0 -204.54232    0  513 -216.84543 -204.54232  5.67%     - 1567s
     0     0 -204.54232    0  519 -216.84543 -204.54232  5.67%     - 1570s
     0     0 -205.56758    0  515 -216.84543 -205.56758  5.20%     - 1581s
     0     0 -205.56758    0  513 -216.84543 -205.56758  5.20%     - 1590s
     0     0 -205.56758    0  513 -216.84543 -205.56758  5.20%     - 1599s
     0     0 -205.56758    0  358 -216.84543 -205.56758  5.20%     - 1609s
     0     0 -205.56758    0  503 -216.84543 -205.56758  5.20%     - 1734s
     0     0 -205.56758    0  475 -216.84543 -205.56758  5.20%     - 1742s
     0     0 -205.82389    0  512 -216.84543 -205.82389  5.08%     - 1835s
     0     0 -205.90933    0  511 -216.84543 -205.90933  5.04%     - 1843s
     0     0 -206.29380    0  525 -216.84543 -206.29380  4.87%     - 1854s
     0     0 -206.59284    0  510 -216.84543 -206.59284  4.73%     - 1867s
     0     0 -206.59284    0  508 -216.84543 -206.59284  4.73%     - 1871s
     0     0 -207.27634    0  529 -216.84543 -207.27634  4.41%     - 1884s
     0     0 -207.36178    0  530 -216.84543 -207.36178  4.37%     - 1892s
     0     0 -207.41305    0  531 -216.84543 -207.41305  4.35%     - 1897s
     0     0 -207.53923    0  532 -216.84543 -207.53923  4.29%     - 1904s
     0     0 -207.54486    0  534 -216.84543 -207.54486  4.29%     - 1909s
     0     0 -207.56114    0  541 -216.84543 -207.56114  4.28%     - 1915s
     0     0 -207.61810    0  451 -216.84543 -207.61810  4.26%     - 1920s
     0     0 -207.61810    0  354 -216.84543 -207.61810  4.26%     - 1924s
     0     0 -207.64658    0  544 -216.84543 -207.64658  4.24%     - 1932s
     0     0 -207.64658    0  542 -216.84543 -207.64658  4.24%     - 1939s
     0     0 -208.13073    0  532 -216.84543 -208.13073  4.02%     - 1949s
     0     0 -208.13073    0  530 -216.84543 -208.13073  4.02%     - 1956s
     0     0 -208.38704    0  526 -216.84543 -208.38704  3.90%     - 2101s
     0     0 -208.38704    0  546 -216.84543 -208.38704  3.90%     - 2162s
     0     0 -208.38704    0  519 -216.84543 -208.38704  3.90%     - 2164s
     0     0 -208.41552    0  525 -216.84543 -208.41552  3.89%     - 2165s
     0     0 -208.41552    0  527 -216.84543 -208.41552  3.89%     - 2166s
     0     0 -209.66862    0  520 -216.84543 -209.66862  3.31%     - 2167s
     0     0 -209.66862    0  519 -216.84543 -209.66862  3.31%     - 2167s
     0     0 -209.66862    0  505 -216.84543 -209.66862  3.31%     - 2168s
     0     0 -209.66862    0  446 -216.84543 -209.66862  3.31%     - 2169s
     0     0 -209.87367    0  430 -216.84543 -209.87367  3.22%     - 2172s
     0     0 -209.87367    0  484 -216.84543 -209.87367  3.22%     - 2173s
     0     0 -209.90245    0  501 -216.84543 -209.90245  3.20%     - 2174s
     0     0 -209.94062    0  499 -216.84543 -209.94062  3.18%     - 2175s
     0     0 -209.97281    0  498 -216.84543 -209.97281  3.17%     - 2175s
     0     0 -210.01037    0  497 -216.84543 -210.01037  3.15%     - 2176s
     0     0 -210.01037    0  497 -216.84543 -210.01037  3.15%     - 2177s
     0     0 -210.01037    0  497 -216.84543 -210.01037  3.15%     - 2177s
     0     0 -210.01037    0  496 -216.84543 -210.01037  3.15%     - 2178s
     0     0 -210.01037    0  498 -216.84543 -210.01037  3.15%     - 2179s
     0     0 -210.01037    0  501 -216.84543 -210.01037  3.15%     - 2180s
     0     0 -210.01037    0  439 -216.84543 -210.01037  3.15%     - 2184s
     0     0 -210.01037    0  454 -216.84543 -210.01037  3.15%     - 2185s
     0     0 -210.01037    0  354 -216.84543 -210.01037  3.15%     - 2189s
     0     0 -210.01037    0  432 -216.84543 -210.01037  3.15%     - 2190s
     0     0 -210.01037    0  386 -216.84543 -210.01037  3.15%     - 2193s
     0     0 -210.01037    0  445 -216.84543 -210.01037  3.15%     - 2194s
     0     0 -210.05309    0  496 -216.84543 -210.05309  3.13%     - 2197s
     0     0 -210.10801    0  536 -216.84543 -210.10801  3.11%     - 2198s
     0     0 -210.10801    0  524 -216.84543 -210.10801  3.11%     - 2198s
     0     0 -210.41426    0  514 -216.84543 -210.41426  2.97%     - 2199s
     0     0 -210.41426    0  519 -216.84543 -210.41426  2.97%     - 2200s
     0     0 -210.43908    0  529 -216.84543 -210.43908  2.95%     - 2200s
     0     0 -210.43908    0  486 -216.84543 -210.43908  2.95%     - 2201s
     0     0 -210.63991    0  524 -216.84543 -210.63991  2.86%     - 2202s
     0     0 -210.69387    0  511 -216.84543 -210.69387  2.84%     - 2204s
     0     0 -210.69387    0  513 -216.84543 -210.69387  2.84%     - 2204s
     0     0 -210.69387    0  515 -216.84543 -210.69387  2.84%     - 2204s
     0     0 -210.69387    0  514 -216.84543 -210.69387  2.84%     - 2205s
     0     0 -210.69387    0  514 -216.84543 -210.69387  2.84%     - 2206s
     0     0 -210.69387    0  514 -216.84543 -210.69387  2.84%     - 2207s
     0     0 -210.69387    0  433 -216.84543 -210.69387  2.84%     - 2211s
     0     0 -210.69387    0  441 -216.84543 -210.69387  2.84%     - 2212s
     0     0 -210.69387    0  434 -216.84543 -210.69387  2.84%     - 2214s
     0     0 -210.69387    0  435 -216.84543 -210.69387  2.84%     - 2217s
     0     0 -210.69387    0  435 -216.84543 -210.69387  2.84%     - 2229s
     0     0 -210.69387    0  546 -216.84543 -210.69387  2.84%     - 2238s
     0     0 -210.69387    0  515 -216.84543 -210.69387  2.84%     - 2239s
     0     0 -210.69387    0  530 -216.84543 -210.69387  2.84%     - 2240s
     0     0 -210.69387    0  525 -216.84543 -210.69387  2.84%     - 2240s
     0     0 -210.69387    0  520 -216.84543 -210.69387  2.84%     - 2241s
     0     0 -210.69387    0  524 -216.84543 -210.69387  2.84%     - 2241s
     0     0 -210.88029    0  523 -216.84543 -210.88029  2.75%     - 2242s
     0     0 -210.93063    0  526 -216.84543 -210.93063  2.73%     - 2242s
     0     0 -210.94810    0  522 -216.84543 -210.94810  2.72%     - 2243s
     0     0 -210.95002    0  524 -216.84543 -210.95002  2.72%     - 2243s
     0     0 -210.95621    0  514 -216.84543 -210.95621  2.72%     - 2243s
     0     0 -210.95878    0  519 -216.84543 -210.95878  2.71%     - 2244s
     0     0 -210.95878    0  519 -216.84543 -210.95878  2.71%     - 2244s
     0     0 -210.95878    0  512 -216.84543 -210.95878  2.71%     - 2245s
     0     0 -210.95878    0  514 -216.84543 -210.95878  2.71%     - 2245s
     0     0 -210.98804    0  517 -216.84543 -210.98804  2.70%     - 2247s
     0     0 -211.14275    0  520 -216.84543 -211.14275  2.63%     - 2247s
     0     0 -211.17095    0  519 -216.84543 -211.17095  2.62%     - 2248s
     0     0 -211.20654    0  518 -216.84543 -211.20654  2.60%     - 2248s
     0     0 -211.21460    0  520 -216.84543 -211.21460  2.60%     - 2248s
     0     0 -211.21460    0  520 -216.84543 -211.21460  2.60%     - 2249s
     0     0 -211.21460    0  521 -216.84543 -211.21460  2.60%     - 2249s
     0     0 -211.21460    0  522 -216.84543 -211.21460  2.60%     - 2250s
     0     0 -211.21460    0  521 -216.84543 -211.21460  2.60%     - 2250s
     0     0 -211.21460    0  519 -216.84543 -211.21460  2.60%     - 2251s
     0     0 -211.21460    0  452 -216.84543 -211.21460  2.60%     - 2253s
     0     0 -211.21460    0  468 -216.84543 -211.21460  2.60%     - 2254s
     0     0 -211.21477    0  454 -216.84543 -211.21477  2.60%     - 2256s
     0     0 -211.21487    0  454 -216.84543 -211.21487  2.60%     - 2256s
     0     0 -211.22548    0  436 -216.84543 -211.22548  2.59%     - 2257s
     0     0 -211.22548    0  436 -216.84543 -211.22548  2.59%     - 2265s
     0     2 -211.22604    0  436 -216.84543 -211.22604  2.59%     - 2269s
     2     5 -212.21748    1  389 -216.84543 -211.79083  2.33%  1182 2270s
    39    13     cutoff    6      -216.84543 -212.58357  1.97%   152 2275s

Cutting planes:
  Gomory: 11
  Zero half: 86

Explored 75 nodes (201878 simplex iterations) in 2278.69 seconds
Thread count was 1 (of 80 available processors)

Solution count 7: -216.845 -216.845 -216.845 ... -13525.5

Optimal solution found (tolerance 1.00e-04)
Best objective -2.168454304475e+02, best bound -2.168454304475e+02, gap 0.0000%
